%%%mzn-stat: initTime=0.006789176
%%%mzn-stat: objective=272
%%%mzn-stat: nodes=11597
%%%mzn-stat: restarts=0
%%%mzn-stat: peakDepth=284
%%%mzn-stat: solveTime=0.53401347
%%%mzn-stat: variables=670
%%%mzn-stat: propagators=453
%%%mzn-stat: failures=2521
%%%mzn-stat: propagations=127876
%%%mzn-stat: nogoods=2521
%%%mzn-stat: AverageConflictSize=13.582705275684253
%%%mzn-stat: NumUnitNogoodsLearned=271
%%%mzn-stat: AverageLearnedNogoodLength=15.455374851249504
%%%mzn-stat: AverageBacktrackAmount=0
%%%mzn-stat: AverageLbd=10.714399047996826
%%%mzn-stat-end
maxleg = 272;
succ = array1d(1..50,[21, 34, 8, 37, 1, 46, 23, 18, 29, 4, 16, 43, 39, 45, 19, 33, 42, 6, 3, 11, 10, 40, 22, 48, 47, 5, 17, 25, 36, 9, 44, 28, 50, 14, 2, 27, 13, 41, 20, 26, 12, 32, 35, 49, 24, 30, 38, 7, 15, 31]);
% time elapsed: 2.11 s
----------
==========
% time elapsed: 2.11 s
%%%mzn-stat: initTime=0.006789176
%%%mzn-stat: objective=272
%%%mzn-stat: nodes=11597
%%%mzn-stat: restarts=0
%%%mzn-stat: peakDepth=284
%%%mzn-stat: solveTime=0.5340173
%%%mzn-stat: variables=670
%%%mzn-stat: propagators=453
%%%mzn-stat: failures=2521
%%%mzn-stat: propagations=127876
%%%mzn-stat: nogoods=2521
%%%mzn-stat: AverageConflictSize=13.582705275684253
%%%mzn-stat: NumUnitNogoodsLearned=271
%%%mzn-stat: AverageLearnedNogoodLength=15.455374851249504
%%%mzn-stat: AverageBacktrackAmount=0
%%%mzn-stat: AverageLbd=10.714399047996826
%%%mzn-stat-end
